c instance by G2
c solution = 0010001010000110110
c Known solution cost is 774 
p cnf 19 30
w 98 38 24 12 38 13 10 7 88 30 9 70 84 2 87 54 53 55 2
-8 -5 -16 0
-15 -19 8 0
-7 -18 -8 0
15 -2 -8 0
-14 -2 1 0
19 18 12 0
-14 9 11 0
-15 -16 -14 0
-9 12 15 0
-12 -14 6 0
10 -5 -17 0
6 -2 12 0
-5 10 16 0
-8 19 1 0
13 9 10 0
-7 -18 -8 0
-7 -10 -14 0
-15 -17 -6 0
17 5 4 0
-9 -5 19 0
-18 11 -1 0
19 14 2 0
9 -14 1 0
-13 -3 1 0
7 13 11 0
-3 -15 -4 0
-9 -14 3 0
6 -11 -4 0
13 -18 -11 0
-16 6 14 0
